27 27
21
3 3 14 5
3 4 0 0
3 5 14 0
3 6 24 21
3 7 3 20
3 8 17 0
3 9 14 8
3 10 14 17
3 11 0 16
3 12 0 4
3 19 17 8
3 20 3 0
3 21 24 0
4 3 6 4
4 4 6 0
4 6 6 21
4 7 10 20
4 8 20 0
4 14 6 7
4 19 20 8
4 20 10 0
